200106870 1 0
72993856 -2 0
80147546 -3 0
99915044 -4 0
133015346 5 0
63244086 -6 0
185737396 -7 0
200915663 -8 0
88987600 -9 0
65798012 -10 0
84437938 -11 0
71941743 5 0
171210999 1 0
163243143 1 0
100841060 -1 0
154036399 -7 0
131097856 -7 0
14881225 -4 0
86265159 -12 0
172651570 -13 0
96965047 -14 0
95111849 -15 0
94418709 -16 0
h 17 4 0
66666398 -5 0
110092753 -18 0
131389430 5 0
72781328 15 0
157980398 5 0
182521942 -19 0
h -4 14 0
194126857 5 0
68961880 -20 0
152122121 -17 0
174333771 -15 0
176755776 -7 0
31155869 -4 0
45348405 -21 0
204198646 -22 0
